proyfinal/src/viki/013/experimentInOfficeAgust.take6.output/3e2903c3-82b4-4166-9aea-479b2b592132.als.out
Reading from standard input... Use '--help' for help.
============================[ Problem Statistics ]=============================
|                                                                             |
|  Number of variables:         87638                                         |
|  Number of clauses:          161767                                         |
|  Parse time:                   0.04 s                                       |
|                                                                             |
============================[ Search Statistics ]==============================
| Conflicts |          ORIGINAL         |          LEARNT          | Progress |
|           |    Vars  Clauses Literals |    Limit  Clauses Lit/Cl |          |
===============================================================================
|       100 |   63935   110761   276622 |    40612      100     16 | 27.046 % |
|       250 |   63935   110761   276622 |    44673      250     39 | 27.046 % |
|       475 |   63935   110761   276622 |    49140      475     59 | 27.046 % |
|       812 |   63935   110761   276622 |    54055      812     67 | 27.046 % |
|      1318 |   63935   110761   276622 |    59460     1318     77 | 27.046 % |
|      2077 |   63880   110643   276348 |    65406     2075     77 | 27.109 % |
|      3216 |   63855   110391   275782 |    71947     3210     81 | 27.138 % |
|      4924 |   63855   110391   275782 |    79142     4918     90 | 27.138 % |
|      7486 |   63855   110391   275782 |    87056     7480    101 | 27.138 % |
|     11330 |   63802   110187   275277 |    95761    11320     95 | 27.198 % |
|     17096 |   55565    84372   211665 |   105338    16734    104 | 36.597 % |
===============================================================================
restarts              : 78
conflicts             : 22349          (6486 /sec)
decisions             : 92587          (0.00 % random) (26871 /sec)
propagations          : 33677848       (9774229 /sec)
conflict literals     : 2184857        (46.21 % deleted)
Memory used           : 39.93 MB
CPU time              : 3.44558 s

INDETERMINATE
